numMeses = 12;
tipoAceite = {veg1, veg2, anv1, anv2, anv3};
numVeg = 2;
numNoVeg = 3;

coste = array2d(1..numMeses, 1..numAceite,   [110, 120, 130, 110, 115,      130, 130, 110, 90, 115,
110, 140, 130, 100, 95,       120, 110, 120, 120, 125,      100, 120, 150, 110, 105,
90, 100, 140, 80, 135,        95, 120, 130, 85, 130,        110, 130, 150, 100, 125,
100, 110, 130, 110, 115,      130, 140, 140, 100, 135,      100, 110, 120, 90, 100,
120, 100, 110, 120, 125  ]);

dureza = [8.0, 6.0, 2.0, 4.0, 5.0];
maxV=400;
maxN=450;
valor=250;
mCap=1500;
CA=5;
minD=3;
maxD=6;
excedente=[200, 100, 150, 200, 50];
minB=650000;

%extra
minComprar = [550,800,2000,900,800]; 
minProduccion = 375;
K = 5;
T= 100;
obligacionMezcla = [{3},{},{},{},{}];
incombinables = [{},{},{},{5},{4}];